presolving:
(round 1, fast)       201 del vars, 0 del conss, 0 add conss, 0 chg bounds, 0 chg sides, 0 chg coeffs, 0 upgd conss, 0 impls, 400 clqs
(round 2, exhaustive) 201 del vars, 0 del conss, 0 add conss, 0 chg bounds, 0 chg sides, 0 chg coeffs, 400 upgd conss, 0 impls, 400 clqs
   (2.0s) probing: 51/39800 (0.1%) - 0 fixings, 0 aggregations, 0 implications, 0 bound changes
   (2.0s) probing aborted: 50/50 successive totally useless probings
   Deactivated symmetry handling methods, since SCIP was built without symmetry detector (SYM=none).
presolving (3 rounds: 3 fast, 2 medium, 2 exhaustive):
 201 deleted vars, 0 deleted constraints, 0 added constraints, 0 tightened bounds, 0 added holes, 0 changed sides, 0 changed coefficients
 0 implications, 400 cliques
presolved problem has 39999 variables (39800 bin, 0 int, 0 impl, 199 cont) and 39802 constraints
    400 constraints of type <setppc>
  39402 constraints of type <linear>
Presolving Time: 2.00

 time | node  | left  |LP iter|LP it/n|mem/heur|mdpt |vars |cons |rows |cuts |sepa|confs|strbr|  dualbound   | primalbound  |  gap   | compl. 
p 4.0s|     1 |     0 |   284 |     - | vbounds|   0 |  39k|  39k|  39k|   0 |  0 |   6 |   0 | 0.000000e+00 | 3.744663e+05 |    Inf | unknown
  4.0s|     1 |     0 |   867 |     - |   362M |   0 |  39k|  39k|  39k|   0 |  0 |   6 |   0 | 2.313934e+04 | 3.744663e+05 |1518.31%| unknown
  5.0s|     1 |     0 |  1070 |     - |   372M |   0 |  39k|  39k|  39k| 156 |  1 |   6 |   0 | 2.483319e+04 | 3.744663e+05 |1407.93%| unknown
  6.0s|     1 |     0 |  1181 |     - |   378M |   0 |  39k|  39k|  40k| 225 |  2 |   6 |   0 | 2.560188e+04 | 3.744663e+05 |1362.65%| unknown
  7.0s|     1 |     0 |  1230 |     - |   385M |   0 |  39k|  39k|  40k| 243 |  3 |   6 |   0 | 2.633590e+04 | 3.744663e+05 |1321.89%| unknown
  8.0s|     1 |     0 |  1320 |     - |   390M |   0 |  39k|  39k|  40k| 297 |  4 |   6 |   0 | 2.643710e+04 | 3.744663e+05 |1316.44%| unknown
  9.0s|     1 |     0 |  1366 |     - |   395M |   0 |  39k|  39k|  40k| 324 |  5 |   6 |   0 | 2.644891e+04 | 3.744663e+05 |1315.81%| unknown
 10.0s|     1 |     0 |  1416 |     - |   402M |   0 |  39k|  39k|  40k| 340 |  6 |   6 |   0 | 2.656385e+04 | 3.744663e+05 |1309.68%| unknown
 11.0s|     1 |     0 |  1434 |     - |   407M |   0 |  39k|  39k|  40k| 350 |  7 |   6 |   0 | 2.664427e+04 | 3.744663e+05 |1305.43%| unknown
 12.0s|     1 |     0 |  1467 |     - |   412M |   0 |  39k|  39k|  40k| 367 |  8 |   6 |   0 | 2.665226e+04 | 3.744663e+05 |1305.01%| unknown
 13.0s|     1 |     0 |  1505 |     - |   415M |   0 |  39k|  39k|  40k| 382 |  9 |   6 |   0 | 2.681006e+04 | 3.744663e+05 |1296.74%| unknown
 13.0s|     1 |     0 |  1574 |     - |   420M |   0 |  39k|  39k|  40k| 424 | 10 |   6 |   0 | 2.712188e+04 | 3.744663e+05 |1280.68%| unknown
 14.0s|     1 |     0 |  1634 |     - |   427M |   0 |  39k|  39k|  40k| 450 | 11 |   6 |   0 | 2.718477e+04 | 3.744663e+05 |1277.49%| unknown
 15.0s|     1 |     0 |  1654 |     - |   431M |   0 |  39k|  39k|  40k| 461 | 12 |   6 |   0 | 2.718477e+04 | 3.744663e+05 |1277.49%| unknown
 16.0s|     1 |     0 |  1678 |     - |   435M |   0 |  39k|  39k|  40k| 469 | 13 |   6 |   0 | 2.719246e+04 | 3.744663e+05 |1277.10%| unknown
 time | node  | left  |LP iter|LP it/n|mem/heur|mdpt |vars |cons |rows |cuts |sepa|confs|strbr|  dualbound   | primalbound  |  gap   | compl. 
 19.0s|     1 |     0 |  1718 |     - |   439M |   0 |  39k|  39k|  40k| 473 | 14 |   6 |   0 | 2.721251e+04 | 3.744663e+05 |1276.08%| unknown
 21.0s|     1 |     0 |  1754 |     - |   442M |   0 |  39k|  39k|  40k| 481 | 15 |   6 |   0 | 2.722202e+04 | 3.744663e+05 |1275.60%| unknown
 22.0s|     1 |     0 |  1791 |     - |   447M |   0 |  39k|  39k|  40k| 494 | 16 |   6 |   0 | 2.723988e+04 | 3.744663e+05 |1274.70%| unknown
 23.0s|     1 |     0 |  1809 |     - |   451M |   0 |  39k|  39k|  40k| 504 | 17 |   6 |   0 | 2.723990e+04 | 3.744663e+05 |1274.70%| unknown
 24.0s|     1 |     0 |  1822 |     - |   455M |   0 |  39k|  39k|  40k| 513 | 18 |   6 |   0 | 2.724506e+04 | 3.744663e+05 |1274.44%| unknown
 25.0s|     1 |     0 |  1839 |     - |   458M |   0 |  39k|  39k|  40k| 519 | 19 |   6 |   0 | 2.724752e+04 | 3.744663e+05 |1274.31%| unknown
 29.0s|     1 |     0 |  1858 |     - |   462M |   0 |  39k|  39k|  40k| 525 | 20 |   6 |   0 | 2.724764e+04 | 3.744663e+05 |1274.31%| unknown
 30.0s|     1 |     0 |  1894 |     - |   462M |   0 |  39k|  39k|  40k| 539 | 21 |   6 |   0 | 2.725505e+04 | 3.744663e+05 |1273.93%| unknown
 31.0s|     1 |     0 |  1929 |     - |   462M |   0 |  39k|  39k|  40k| 559 | 22 |   6 |   0 | 2.726676e+04 | 3.744663e+05 |1273.34%| unknown
 32.0s|     1 |     0 |  1949 |     - |   462M |   0 |  39k|  39k|  40k| 571 | 23 |   6 |   0 | 2.732329e+04 | 3.744663e+05 |1270.50%| unknown
 33.0s|     1 |     0 |  1958 |     - |   462M |   0 |  39k|  39k|  40k| 577 | 24 |   6 |   0 | 2.732329e+04 | 3.744663e+05 |1270.50%| unknown
 34.0s|     1 |     0 |  1968 |     - |   462M |   0 |  39k|  39k|  40k| 580 | 25 |   6 |   0 | 2.732640e+04 | 3.744663e+05 |1270.35%| unknown
 38.0s|     1 |     0 |  1994 |     - |   462M |   0 |  39k|  39k|  40k| 588 | 26 |   6 |   0 | 2.732879e+04 | 3.744663e+05 |1270.23%| unknown
 39.0s|     1 |     0 |  2015 |     - |   462M |   0 |  39k|  39k|  40k| 602 | 27 |   6 |   0 | 2.733204e+04 | 3.744663e+05 |1270.06%| unknown
 40.0s|     1 |     0 |  2021 |     - |   462M |   0 |  39k|  39k|  40k| 607 | 28 |   6 |   0 | 2.733204e+04 | 3.744663e+05 |1270.06%| unknown
 time | node  | left  |LP iter|LP it/n|mem/heur|mdpt |vars |cons |rows |cuts |sepa|confs|strbr|  dualbound   | primalbound  |  gap   | compl. 
 42.0s|     1 |     0 |  2030 |     - |   462M |   0 |  39k|  39k|  40k| 611 | 30 |   6 |   0 | 2.733204e+04 | 3.744663e+05 |1270.06%| unknown
L95.0s|     1 |     0 |  9966 |     - |    alns|   0 |  39k|  39k|  40k| 611 | 32 |   9 |   0 | 2.733204e+04 | 3.684761e+05 |1248.15%| unknown
  106s|     1 |     0 |  9966 |     - |   469M |   0 |  39k|  39k|  40k| 611 | 32 |   9 |   0 | 2.733204e+04 | 3.684761e+05 |1248.15%| unknown
  107s|     1 |     0 |  9972 |     - |   469M |   0 |  39k|  39k|  40k| 614 | 33 |   9 |   0 | 2.734978e+04 | 3.684761e+05 |1247.27%| unknown
  108s|     1 |     0 |  9993 |     - |   469M |   0 |  39k|  39k|  40k| 616 | 34 |   9 |   0 | 2.736047e+04 | 3.684761e+05 |1246.75%| unknown
  137s|     1 |     2 |  9993 |     - |   470M |   0 |  39k|  39k|  40k| 616 | 34 |   9 |  27 | 2.739824e+04 | 3.684761e+05 |1244.89%| unknown

SCIP Status        : solving was interrupted [time limit reached]
Solving Time (sec) : 600.00
Solving Nodes      : 11
Primal Bound       : +3.68476057962212e+05 (2 solutions)
Dual Bound         : +2.73982364370615e+04
Gap                : 1244.89 %
Trying to solve problem with MTZ Solver Method...
Starting Solver, time limit setted to 10 minutes
Route:  [[0, 2], [1, 3], [2, 1], [3, 4], [4, 5], [5, 6], [6, 7], [7, 8], [8, 9], [9, 10], [10, 11], [11, 12], [12, 13], [13, 14], [14, 15], [15, 16], [16, 17], [17, 18], [18, 19], [19, 20], [20, 21], [21, 22], [22, 23], [23, 24], [24, 25], [25, 26], [26, 27], [27, 28], [28, 29], [29, 30], [30, 31], [31, 32], [32, 33], [33, 34], [34, 35], [35, 36], [36, 37], [37, 38], [38, 39], [39, 40], [40, 41], [41, 42], [42, 43], [43, 44], [44, 45], [45, 46], [46, 47], [47, 48], [48, 49], [49, 50], [50, 51], [51, 52], [52, 53], [53, 54], [54, 55], [55, 56], [56, 57], [57, 58], [58, 59], [59, 60], [60, 61], [61, 62], [62, 63], [63, 64], [64, 65], [65, 66], [66, 67], [67, 68], [68, 69], [69, 70], [70, 71], [71, 72], [72, 73], [73, 74], [74, 75], [75, 76], [76, 77], [77, 78], [78, 79], [79, 80], [80, 81], [81, 82], [82, 83], [83, 84], [84, 85], [85, 86], [86, 87], [87, 88], [88, 89], [89, 90], [90, 91], [91, 92], [92, 93], [93, 94], [94, 95], [95, 96], [96, 97], [97, 98], [98, 99], [99, 100], [100, 101], [101, 102], [102, 128], [103, 104], [104, 105], [105, 106], [106, 107], [107, 108], [108, 109], [109, 110], [110, 111], [111, 112], [112, 113], [113, 114], [114, 115], [115, 116], [116, 117], [117, 118], [118, 119], [119, 120], [120, 121], [121, 122], [122, 123], [123, 124], [124, 125], [125, 126], [126, 127], [127, 166], [128, 129], [129, 130], [130, 131], [131, 132], [132, 133], [133, 134], [134, 135], [135, 136], [136, 137], [137, 138], [138, 139], [139, 140], [140, 141], [141, 142], [142, 143], [143, 144], [144, 145], [145, 146], [146, 147], [147, 148], [148, 149], [149, 150], [150, 151], [151, 152], [152, 153], [153, 154], [154, 155], [155, 156], [156, 157], [157, 158], [158, 159], [159, 160], [160, 161], [161, 162], [162, 163], [163, 164], [164, 165], [165, 103], [166, 167], [167, 168], [168, 169], [169, 170], [170, 171], [171, 172], [172, 173], [173, 174], [174, 175], [175, 176], [176, 177], [177, 178], [178, 179], [179, 180], [180, 181], [181, 182], [182, 183], [183, 184], [184, 185], [185, 186], [186, 187], [187, 188], [188, 189], [189, 190], [190, 191], [191, 192], [192, 193], [193, 194], [194, 195], [195, 196], [196, 197], [197, 198], [198, 199], [199, 0]]
An Otimal Solution was found, yay!
Objective value: 368476.1
Problem solved in 10611 iterations
Problem solved in 11 nodes
Final Route Configuration succesfully created at:
data/routes/kroA200.csv
